
Gurobi 6.5.2 (win64) logging started 07/22/16 21:41:08


Gurobi 6.5.2 (win64) logging started 07/22/16 21:41:08

Optimize a model with 1595 rows, 234 columns and 3362 nonzeros
Coefficient statistics:
  Matrix range    [1e+00, 1e+00]
  Objective range [2e+00, 6e+02]
  Bounds range    [1e+00, 1e+00]
  RHS range       [1e+00, 1e+00]
Found heuristic solution: objective -0
Presolve removed 1493 rows and 30 columns
Presolve time: 0.00s
Presolved: 102 rows, 204 columns, 642 nonzeros
Variable types: 0 continuous, 204 integer (204 binary)

Root relaxation: objective 1.880000e+03, 91 iterations, 0.00 seconds

    Nodes    |    Current Node    |     Objective Bounds      |     Work
 Expl Unexpl |  Obj  Depth IntInf | Incumbent    BestBd   Gap | It/Node Time

*    0     0               0    1880.0000000 1880.00000  0.00%     -    0s

Explored 0 nodes (91 simplex iterations) in 0.00 seconds
Thread count was 8 (of 8 available processors)

Optimal solution found (tolerance 1.00e-04)
Best objective 1.880000000000e+03, best bound 1.880000000000e+03, gap 0.0%

Wrote requested result file 'H1\instance18\\Results18.lp'

